MLW04
Position Depot: Random
Horizon for Depot: Large
Position of customers: Mixt
Distribution of the demand: Small
Width of time windows: Wide
Distribution of the service: Small

VEHICLE 
NUMBER 	 CAPACITY 
 14 	 	 53 
 
CUSTOMER
CUST NO. 	 XCOORD.  	 YCOORD. 	 DEMAND 	 READY TIME 	 DUE DATE 	 SERVICE TIME 
 0 	 	 84 	 	 357 	 	 0 	 	 0 	 	 2707 	 	 0 
  1 	 	 234 	 	 607 	 	 5 	 	 1749 	 	 2168 	 	 85 
  2 	 	 288 	 	 417 	 	 10 	 	 2029 	 	 2495 	 	 72 
  3 	 	 13 	 	 11 	 	 7 	 	 -63 	 	 388 	 	 69 
  4 	 	 130 	 	 743 	 	 10 	 	 1114 	 	 1382 	 	 96 
  5 	 	 410 	 	 192 	 	 8 	 	 1071 	 	 1355 	 	 61 
  6 	 	 368 	 	 235 	 	 6 	 	 2140 	 	 2606 	 	 97 
  7 	 	 505 	 	 17 	 	 6 	 	 2045 	 	 2425 	 	 82 
  8 	 	 247 	 	 479 	 	 9 	 	 1543 	 	 1941 	 	 77 
  9 	 	 391 	 	 177 	 	 7 	 	 -60 	 	 414 	 	 98 
  10 	 	 346 	 	 450 	 	 8 	 	 437 	 	 775 	 	 91 
  11 	 	 91 	 	 678 	 	 9 	 	 1517 	 	 1926 	 	 67 
  12 	 	 372 	 	 468 	 	 10 	 	 1501 	 	 1745 	 	 58 
  13 	 	 366 	 	 112 	 	 10 	 	 1025 	 	 1395 	 	 90 
  14 	 	 176 	 	 612 	 	 5 	 	 1728 	 	 1974 	 	 72 
  15 	 	 375 	 	 184 	 	 10 	 	 2220 	 	 2707 	 	 54 
  16 	 	 309 	 	 669 	 	 7 	 	 316 	 	 529 	 	 89 
  17 	 	 383 	 	 6 	 	 9 	 	 1572 	 	 1897 	 	 76 
  18 	 	 167 	 	 641 	 	 5 	 	 357 	 	 688 	 	 76 
  19 	 	 186 	 	 663 	 	 7 	 	 2129 	 	 2460 	 	 59 
  20 	 	 296 	 	 212 	 	 8 	 	 28 	 	 366 	 	 62 
  21 	 	 270 	 	 600 	 	 6 	 	 -69 	 	 421 	 	 59 
  22 	 	 409 	 	 203 	 	 10 	 	 805 	 	 1134 	 	 85 
  23 	 	 185 	 	 718 	 	 8 	 	 693 	 	 1059 	 	 78 
  24 	 	 236 	 	 621 	 	 10 	 	 1716 	 	 2168 	 	 85 
  25 	 	 399 	 	 187 	 	 5 	 	 560 	 	 908 	 	 86 
  26 	 	 195 	 	 771 	 	 7 	 	 830 	 	 1256 	 	 66 
  27 	 	 352 	 	 218 	 	 8 	 	 409 	 	 832 	 	 54 
  28 	 	 496 	 	 148 	 	 5 	 	 137 	 	 508 	 	 97 
  29 	 	 346 	 	 204 	 	 8 	 	 229 	 	 717 	 	 67 
  30 	 	 267 	 	 676 	 	 8 	 	 835 	 	 1075 	 	 52 
  31 	 	 247 	 	 424 	 	 10 	 	 -144 	 	 242 	 	 97 
  32 	 	 208 	 	 670 	 	 7 	 	 1821 	 	 2156 	 	 75 
  33 	 	 124 	 	 46 	 	 7 	 	 1349 	 	 1813 	 	 71 
  34 	 	 29 	 	 44 	 	 9 	 	 -40 	 	 436 	 	 65 
  35 	 	 313 	 	 642 	 	 9 	 	 154 	 	 593 	 	 100 
  36 	 	 311 	 	 235 	 	 6 	 	 2250 	 	 2707 	 	 69 
  37 	 	 169 	 	 639 	 	 6 	 	 1281 	 	 1725 	 	 83 
  38 	 	 292 	 	 416 	 	 7 	 	 769 	 	 1256 	 	 84 
  39 	 	 237 	 	 641 	 	 8 	 	 1524 	 	 1759 	 	 59 
  40 	 	 403 	 	 159 	 	 6 	 	 2232 	 	 2498 	 	 59 
  41 	 	 349 	 	 230 	 	 7 	 	 437 	 	 911 	 	 77 
  42 	 	 449 	 	 232 	 	 5 	 	 1823 	 	 2113 	 	 85 
  43 	 	 511 	 	 41 	 	 8 	 	 1224 	 	 1681 	 	 60 
  44 	 	 316 	 	 363 	 	 9 	 	 2205 	 	 2410 	 	 58 
  45 	 	 359 	 	 273 	 	 10 	 	 294 	 	 502 	 	 67 
  46 	 	 347 	 	 172 	 	 9 	 	 2101 	 	 2574 	 	 93 
  47 	 	 532 	 	 53 	 	 8 	 	 915 	 	 1398 	 	 92 
  48 	 	 47 	 	 28 	 	 6 	 	 728 	 	 1099 	 	 91 
  49 	 	 234 	 	 280 	 	 5 	 	 -81 	 	 185 	 	 60 
  50 	 	 118 	 	 774 	 	 7 	 	 1843 	 	 2137 	 	 73 
  51 	 	 385 	 	 255 	 	 6 	 	 73 	 	 349 	 	 53 
  52 	 	 569 	 	 129 	 	 8 	 	 2341 	 	 2671 	 	 92 
  53 	 	 324 	 	 880 	 	 5 	 	 309 	 	 632 	 	 100 
  54 	 	 862 	 	 541 	 	 10 	 	 655 	 	 879 	 	 85 
  55 	 	 752 	 	 345 	 	 10 	 	 1554 	 	 1968 	 	 72 
  56 	 	 807 	 	 743 	 	 9 	 	 844 	 	 1139 	 	 68 
  57 	 	 428 	 	 389 	 	 7 	 	 2092 	 	 2543 	 	 90 
  58 	 	 789 	 	 263 	 	 6 	 	 1078 	 	 1471 	 	 98 
  59 	 	 129 	 	 645 	 	 8 	 	 1729 	 	 2182 	 	 80 
  60 	 	 756 	 	 757 	 	 7 	 	 1132 	 	 1416 	 	 76 
  61 	 	 887 	 	 270 	 	 7 	 	 923 	 	 1262 	 	 82 
  62 	 	 767 	 	 510 	 	 9 	 	 563 	 	 837 	 	 61 
  63 	 	 437 	 	 80 	 	 5 	 	 1312 	 	 1774 	 	 87 
  64 	 	 152 	 	 816 	 	 8 	 	 722 	 	 1134 	 	 100 
  65 	 	 413 	 	 653 	 	 5 	 	 351 	 	 731 	 	 77 
  66 	 	 588 	 	 784 	 	 8 	 	 443 	 	 726 	 	 97 
  67 	 	 913 	 	 204 	 	 8 	 	 1729 	 	 1937 	 	 87 
  68 	 	 167 	 	 173 	 	 5 	 	 1048 	 	 1323 	 	 92 
  69 	 	 426 	 	 749 	 	 7 	 	 1286 	 	 1752 	 	 63 
  70 	 	 32 	 	 978 	 	 10 	 	 265 	 	 685 	 	 63 
  71 	 	 663 	 	 140 	 	 9 	 	 1447 	 	 1866 	 	 82 
  72 	 	 500 	 	 512 	 	 6 	 	 868 	 	 1221 	 	 83 
  73 	 	 567 	 	 425 	 	 5 	 	 1827 	 	 2181 	 	 55 
  74 	 	 700 	 	 229 	 	 10 	 	 521 	 	 983 	 	 86 
  75 	 	 953 	 	 513 	 	 7 	 	 494 	 	 971 	 	 97 
  76 	 	 577 	 	 480 	 	 6 	 	 1078 	 	 1511 	 	 79 
  77 	 	 142 	 	 460 	 	 5 	 	 133 	 	 362 	 	 84 
  78 	 	 899 	 	 194 	 	 5 	 	 652 	 	 1040 	 	 94 
  79 	 	 563 	 	 132 	 	 10 	 	 2139 	 	 2608 	 	 95 
  80 	 	 496 	 	 831 	 	 10 	 	 2398 	 	 2681 	 	 90 
  81 	 	 95 	 	 687 	 	 8 	 	 765 	 	 1225 	 	 71 
  82 	 	 964 	 	 421 	 	 9 	 	 994 	 	 1408 	 	 91 
  83 	 	 551 	 	 739 	 	 7 	 	 309 	 	 733 	 	 79 
  84 	 	 158 	 	 570 	 	 10 	 	 1094 	 	 1457 	 	 58 
  85 	 	 235 	 	 792 	 	 10 	 	 1409 	 	 1879 	 	 91 
  86 	 	 372 	 	 694 	 	 7 	 	 1499 	 	 1876 	 	 70 
  87 	 	 656 	 	 870 	 	 10 	 	 1128 	 	 1560 	 	 53 
  88 	 	 78 	 	 170 	 	 8 	 	 2497 	 	 2707 	 	 66 
  89 	 	 274 	 	 103 	 	 5 	 	 2088 	 	 2464 	 	 82 
  90 	 	 975 	 	 763 	 	 5 	 	 688 	 	 1077 	 	 68 
  91 	 	 880 	 	 888 	 	 8 	 	 829 	 	 1052 	 	 57 
  92 	 	 788 	 	 5 	 	 6 	 	 1418 	 	 1819 	 	 65 
  93 	 	 273 	 	 380 	 	 6 	 	 415 	 	 632 	 	 62 
  94 	 	 488 	 	 8 	 	 7 	 	 1757 	 	 2107 	 	 71 
  95 	 	 302 	 	 664 	 	 9 	 	 2444 	 	 2707 	 	 92 
  96 	 	 901 	 	 600 	 	 8 	 	 1706 	 	 2130 	 	 98 
  97 	 	 46 	 	 695 	 	 7 	 	 1618 	 	 1843 	 	 76 
  98 	 	 872 	 	 859 	 	 10 	 	 909 	 	 1391 	 	 65 
  99 	 	 588 	 	 598 	 	 9 	 	 1356 	 	 1770 	 	 81 
  100 	 	 854 	 	 768 	 	 7 	 	 1583 	 	 1976 	 	 51 
 